(set-logic QF_LRA)
(declare-fun X0 () Real )
(declare-fun Y0 () Real )
(declare-fun X1 () Real )
(declare-fun Y1 () Real )
(declare-fun X2 () Real )
(declare-fun Y2 () Real )
(declare-fun X3 () Real )
(declare-fun Y3 () Real )
(declare-fun X4 () Real )
(declare-fun Y4 () Real )
(declare-fun X5 () Real )
(declare-fun Y5 () Real )
(declare-fun X6 () Real )
(declare-fun Y6 () Real )
(declare-fun X7 () Real )
(declare-fun Y7 () Real )
(declare-fun X8 () Real )
(declare-fun Y8 () Real )
(declare-fun X9 () Real )
(declare-fun Y9 () Real )
(declare-fun X10 () Real )
(declare-fun Y10 () Real )
(declare-fun X11 () Real )
(declare-fun Y11 () Real )
(declare-fun Z () Real )
(declare-fun k () Real )
(assert (let
(( $goal (>= Z k) ))
(let
((
$phi ( and 
( or ( <= ( + X0 99 ) X1 )  ( <= ( + X1 75 ) X0 )  ( <= ( + Y0 78 ) Y1 )  ( <= ( + Y1 89 ) Y0 )  )
( or ( <= ( + X0 99 ) X2 )  ( <= ( + X2 15 ) X0 )  ( <= ( + Y0 78 ) Y2 )  ( <= ( + Y2 29 ) Y0 )  )
( or ( <= ( + X0 99 ) X3 )  ( <= ( + X3 57 ) X0 )  ( <= ( + Y0 78 ) Y3 )  ( <= ( + Y3 54 ) Y0 )  )
( or ( <= ( + X0 99 ) X4 )  ( <= ( + X4 70 ) X0 )  ( <= ( + Y0 78 ) Y4 )  ( <= ( + Y4 57 ) Y0 )  )
( or ( <= ( + X0 99 ) X5 )  ( <= ( + X5 20 ) X0 )  ( <= ( + Y0 78 ) Y5 )  ( <= ( + Y5 1 ) Y0 )  )
( or ( <= ( + X0 99 ) X6 )  ( <= ( + X6 40 ) X0 )  ( <= ( + Y0 78 ) Y6 )  ( <= ( + Y6 71 ) Y0 )  )
( or ( <= ( + X0 99 ) X7 )  ( <= ( + X7 81 ) X0 )  ( <= ( + Y0 78 ) Y7 )  ( <= ( + Y7 10 ) Y0 )  )
( or ( <= ( + X0 99 ) X8 )  ( <= ( + X8 76 ) X0 )  ( <= ( + Y0 78 ) Y8 )  ( <= ( + Y8 93 ) Y0 )  )
( or ( <= ( + X0 99 ) X9 )  ( <= ( + X9 40 ) X0 )  ( <= ( + Y0 78 ) Y9 )  ( <= ( + Y9 92 ) Y0 )  )
( or ( <= ( + X0 99 ) X10 )  ( <= ( + X10 26 ) X0 )  ( <= ( + Y0 78 ) Y10 )  ( <= ( + Y10 59 ) Y0 )  )
( or ( <= ( + X0 99 ) X11 )  ( <= ( + X11 72 ) X0 )  ( <= ( + Y0 78 ) Y11 )  ( <= ( + Y11 33 ) Y0 )  )
( or ( <= ( + X1 75 ) X2 )  ( <= ( + X2 15 ) X1 )  ( <= ( + Y1 89 ) Y2 )  ( <= ( + Y2 29 ) Y1 )  )
( or ( <= ( + X1 75 ) X3 )  ( <= ( + X3 57 ) X1 )  ( <= ( + Y1 89 ) Y3 )  ( <= ( + Y3 54 ) Y1 )  )
( or ( <= ( + X1 75 ) X4 )  ( <= ( + X4 70 ) X1 )  ( <= ( + Y1 89 ) Y4 )  ( <= ( + Y4 57 ) Y1 )  )
( or ( <= ( + X1 75 ) X5 )  ( <= ( + X5 20 ) X1 )  ( <= ( + Y1 89 ) Y5 )  ( <= ( + Y5 1 ) Y1 )  )
( or ( <= ( + X1 75 ) X6 )  ( <= ( + X6 40 ) X1 )  ( <= ( + Y1 89 ) Y6 )  ( <= ( + Y6 71 ) Y1 )  )
( or ( <= ( + X1 75 ) X7 )  ( <= ( + X7 81 ) X1 )  ( <= ( + Y1 89 ) Y7 )  ( <= ( + Y7 10 ) Y1 )  )
( or ( <= ( + X1 75 ) X8 )  ( <= ( + X8 76 ) X1 )  ( <= ( + Y1 89 ) Y8 )  ( <= ( + Y8 93 ) Y1 )  )
( or ( <= ( + X1 75 ) X9 )  ( <= ( + X9 40 ) X1 )  ( <= ( + Y1 89 ) Y9 )  ( <= ( + Y9 92 ) Y1 )  )
( or ( <= ( + X1 75 ) X10 )  ( <= ( + X10 26 ) X1 )  ( <= ( + Y1 89 ) Y10 )  ( <= ( + Y10 59 ) Y1 )  )
( or ( <= ( + X1 75 ) X11 )  ( <= ( + X11 72 ) X1 )  ( <= ( + Y1 89 ) Y11 )  ( <= ( + Y11 33 ) Y1 )  )
( or ( <= ( + X2 15 ) X3 )  ( <= ( + X3 57 ) X2 )  ( <= ( + Y2 29 ) Y3 )  ( <= ( + Y3 54 ) Y2 )  )
( or ( <= ( + X2 15 ) X4 )  ( <= ( + X4 70 ) X2 )  ( <= ( + Y2 29 ) Y4 )  ( <= ( + Y4 57 ) Y2 )  )
( or ( <= ( + X2 15 ) X5 )  ( <= ( + X5 20 ) X2 )  ( <= ( + Y2 29 ) Y5 )  ( <= ( + Y5 1 ) Y2 )  )
( or ( <= ( + X2 15 ) X6 )  ( <= ( + X6 40 ) X2 )  ( <= ( + Y2 29 ) Y6 )  ( <= ( + Y6 71 ) Y2 )  )
( or ( <= ( + X2 15 ) X7 )  ( <= ( + X7 81 ) X2 )  ( <= ( + Y2 29 ) Y7 )  ( <= ( + Y7 10 ) Y2 )  )
( or ( <= ( + X2 15 ) X8 )  ( <= ( + X8 76 ) X2 )  ( <= ( + Y2 29 ) Y8 )  ( <= ( + Y8 93 ) Y2 )  )
( or ( <= ( + X2 15 ) X9 )  ( <= ( + X9 40 ) X2 )  ( <= ( + Y2 29 ) Y9 )  ( <= ( + Y9 92 ) Y2 )  )
( or ( <= ( + X2 15 ) X10 )  ( <= ( + X10 26 ) X2 )  ( <= ( + Y2 29 ) Y10 )  ( <= ( + Y10 59 ) Y2 )  )
( or ( <= ( + X2 15 ) X11 )  ( <= ( + X11 72 ) X2 )  ( <= ( + Y2 29 ) Y11 )  ( <= ( + Y11 33 ) Y2 )  )
( or ( <= ( + X3 57 ) X4 )  ( <= ( + X4 70 ) X3 )  ( <= ( + Y3 54 ) Y4 )  ( <= ( + Y4 57 ) Y3 )  )
( or ( <= ( + X3 57 ) X5 )  ( <= ( + X5 20 ) X3 )  ( <= ( + Y3 54 ) Y5 )  ( <= ( + Y5 1 ) Y3 )  )
( or ( <= ( + X3 57 ) X6 )  ( <= ( + X6 40 ) X3 )  ( <= ( + Y3 54 ) Y6 )  ( <= ( + Y6 71 ) Y3 )  )
( or ( <= ( + X3 57 ) X7 )  ( <= ( + X7 81 ) X3 )  ( <= ( + Y3 54 ) Y7 )  ( <= ( + Y7 10 ) Y3 )  )
( or ( <= ( + X3 57 ) X8 )  ( <= ( + X8 76 ) X3 )  ( <= ( + Y3 54 ) Y8 )  ( <= ( + Y8 93 ) Y3 )  )
( or ( <= ( + X3 57 ) X9 )  ( <= ( + X9 40 ) X3 )  ( <= ( + Y3 54 ) Y9 )  ( <= ( + Y9 92 ) Y3 )  )
( or ( <= ( + X3 57 ) X10 )  ( <= ( + X10 26 ) X3 )  ( <= ( + Y3 54 ) Y10 )  ( <= ( + Y10 59 ) Y3 )  )
( or ( <= ( + X3 57 ) X11 )  ( <= ( + X11 72 ) X3 )  ( <= ( + Y3 54 ) Y11 )  ( <= ( + Y11 33 ) Y3 )  )
( or ( <= ( + X4 70 ) X5 )  ( <= ( + X5 20 ) X4 )  ( <= ( + Y4 57 ) Y5 )  ( <= ( + Y5 1 ) Y4 )  )
( or ( <= ( + X4 70 ) X6 )  ( <= ( + X6 40 ) X4 )  ( <= ( + Y4 57 ) Y6 )  ( <= ( + Y6 71 ) Y4 )  )
( or ( <= ( + X4 70 ) X7 )  ( <= ( + X7 81 ) X4 )  ( <= ( + Y4 57 ) Y7 )  ( <= ( + Y7 10 ) Y4 )  )
( or ( <= ( + X4 70 ) X8 )  ( <= ( + X8 76 ) X4 )  ( <= ( + Y4 57 ) Y8 )  ( <= ( + Y8 93 ) Y4 )  )
( or ( <= ( + X4 70 ) X9 )  ( <= ( + X9 40 ) X4 )  ( <= ( + Y4 57 ) Y9 )  ( <= ( + Y9 92 ) Y4 )  )
( or ( <= ( + X4 70 ) X10 )  ( <= ( + X10 26 ) X4 )  ( <= ( + Y4 57 ) Y10 )  ( <= ( + Y10 59 ) Y4 )  )
( or ( <= ( + X4 70 ) X11 )  ( <= ( + X11 72 ) X4 )  ( <= ( + Y4 57 ) Y11 )  ( <= ( + Y11 33 ) Y4 )  )
( or ( <= ( + X5 20 ) X6 )  ( <= ( + X6 40 ) X5 )  ( <= ( + Y5 1 ) Y6 )  ( <= ( + Y6 71 ) Y5 )  )
( or ( <= ( + X5 20 ) X7 )  ( <= ( + X7 81 ) X5 )  ( <= ( + Y5 1 ) Y7 )  ( <= ( + Y7 10 ) Y5 )  )
( or ( <= ( + X5 20 ) X8 )  ( <= ( + X8 76 ) X5 )  ( <= ( + Y5 1 ) Y8 )  ( <= ( + Y8 93 ) Y5 )  )
( or ( <= ( + X5 20 ) X9 )  ( <= ( + X9 40 ) X5 )  ( <= ( + Y5 1 ) Y9 )  ( <= ( + Y9 92 ) Y5 )  )
( or ( <= ( + X5 20 ) X10 )  ( <= ( + X10 26 ) X5 )  ( <= ( + Y5 1 ) Y10 )  ( <= ( + Y10 59 ) Y5 )  )
( or ( <= ( + X5 20 ) X11 )  ( <= ( + X11 72 ) X5 )  ( <= ( + Y5 1 ) Y11 )  ( <= ( + Y11 33 ) Y5 )  )
( or ( <= ( + X6 40 ) X7 )  ( <= ( + X7 81 ) X6 )  ( <= ( + Y6 71 ) Y7 )  ( <= ( + Y7 10 ) Y6 )  )
( or ( <= ( + X6 40 ) X8 )  ( <= ( + X8 76 ) X6 )  ( <= ( + Y6 71 ) Y8 )  ( <= ( + Y8 93 ) Y6 )  )
( or ( <= ( + X6 40 ) X9 )  ( <= ( + X9 40 ) X6 )  ( <= ( + Y6 71 ) Y9 )  ( <= ( + Y9 92 ) Y6 )  )
( or ( <= ( + X6 40 ) X10 )  ( <= ( + X10 26 ) X6 )  ( <= ( + Y6 71 ) Y10 )  ( <= ( + Y10 59 ) Y6 )  )
( or ( <= ( + X6 40 ) X11 )  ( <= ( + X11 72 ) X6 )  ( <= ( + Y6 71 ) Y11 )  ( <= ( + Y11 33 ) Y6 )  )
( or ( <= ( + X7 81 ) X8 )  ( <= ( + X8 76 ) X7 )  ( <= ( + Y7 10 ) Y8 )  ( <= ( + Y8 93 ) Y7 )  )
( or ( <= ( + X7 81 ) X9 )  ( <= ( + X9 40 ) X7 )  ( <= ( + Y7 10 ) Y9 )  ( <= ( + Y9 92 ) Y7 )  )
( or ( <= ( + X7 81 ) X10 )  ( <= ( + X10 26 ) X7 )  ( <= ( + Y7 10 ) Y10 )  ( <= ( + Y10 59 ) Y7 )  )
( or ( <= ( + X7 81 ) X11 )  ( <= ( + X11 72 ) X7 )  ( <= ( + Y7 10 ) Y11 )  ( <= ( + Y11 33 ) Y7 )  )
( or ( <= ( + X8 76 ) X9 )  ( <= ( + X9 40 ) X8 )  ( <= ( + Y8 93 ) Y9 )  ( <= ( + Y9 92 ) Y8 )  )
( or ( <= ( + X8 76 ) X10 )  ( <= ( + X10 26 ) X8 )  ( <= ( + Y8 93 ) Y10 )  ( <= ( + Y10 59 ) Y8 )  )
( or ( <= ( + X8 76 ) X11 )  ( <= ( + X11 72 ) X8 )  ( <= ( + Y8 93 ) Y11 )  ( <= ( + Y11 33 ) Y8 )  )
( or ( <= ( + X9 40 ) X10 )  ( <= ( + X10 26 ) X9 )  ( <= ( + Y9 92 ) Y10 )  ( <= ( + Y10 59 ) Y9 )  )
( or ( <= ( + X9 40 ) X11 )  ( <= ( + X11 72 ) X9 )  ( <= ( + Y9 92 ) Y11 )  ( <= ( + Y11 33 ) Y9 )  )
( or ( <= ( + X10 26 ) X11 )  ( <= ( + X11 72 ) X10 )  ( <= ( + Y10 59 ) Y11 )  ( <= ( + Y11 33 ) Y10 )  )
( >= X0 0)
( <= ( + X0 99) Z)
( >= Y0 0)
( <= ( + Y0 78 ) 100)
( >= X1 0)
( <= ( + X1 75) Z)
( >= Y1 0)
( <= ( + Y1 89 ) 100)
( >= X2 0)
( <= ( + X2 15) Z)
( >= Y2 0)
( <= ( + Y2 29 ) 100)
( >= X3 0)
( <= ( + X3 57) Z)
( >= Y3 0)
( <= ( + Y3 54 ) 100)
( >= X4 0)
( <= ( + X4 70) Z)
( >= Y4 0)
( <= ( + Y4 57 ) 100)
( >= X5 0)
( <= ( + X5 20) Z)
( >= Y5 0)
( <= ( + Y5 1 ) 100)
( >= X6 0)
( <= ( + X6 40) Z)
( >= Y6 0)
( <= ( + Y6 71 ) 100)
( >= X7 0)
( <= ( + X7 81) Z)
( >= Y7 0)
( <= ( + Y7 10 ) 100)
( >= X8 0)
( <= ( + X8 76) Z)
( >= Y8 0)
( <= ( + Y8 93 ) 100)
( >= X9 0)
( <= ( + X9 40) Z)
( >= Y9 0)
( <= ( + Y9 92 ) 100)
( >= X10 0)
( <= ( + X10 26) Z)
( >= Y10 0)
( <= ( + Y10 59 ) 100)
( >= X11 0)
( <= ( + X11 72) Z)
( >= Y11 0)
( <= ( + Y11 33 ) 100)
) )
)(=> $phi $goal))))